
  22    4
  10   10   10   10

   0   0   0   0   0   7 2 3 4 5 6 8 9 
   4  10  10  10  10   4 21 20 10 7 
   9  10  10  10  10   3 20 11 10 
   1  10  10  10  10   4 20 19 14 12 
   4  10  10  10  10   2 20 10 
   6  10  10  10  10   5 21 20 19 18 13 
   4  10  10  10  10   3 19 14 12 
   9  10  10  10  10   3 21 20 12 
   6  10  10  10  10   3 21 14 12 
   1  10  10  10  10   4 19 18 14 13 
   9  10  10  10  10   4 19 18 17 14 
   3  10  10  10  10   2 18 13 
   3  10  10  10  10   3 17 16 15 
   5  10  10  10  10   2 16 15 
   4  10  10  10  10   1 22
   9  10  10  10  10   1 22
  10  10  10  10  10   1 22
   7  10  10  10  10   1 22
   1  10  10  10  10   1 22
   2  10  10  10  10   1 22
   6  10  10  10  10   1 22
   0   0   0   0   0   0 
